
******************************************************************************
This program contains Ipopt, a library for large-scale nonlinear optimization.
 Ipopt is released as open source code under the Eclipse Public License (EPL).
         For more information visit http://projects.coin-or.org/Ipopt

This version of Ipopt was compiled from source code available at
    https://github.com/IDAES/Ipopt as part of the Institute for the Design of
    Advanced Energy Systems Process Systems Engineering Framework (IDAES PSE
    Framework) Copyright (c) 2018-2019. See https://github.com/IDAES/idaes-pse.

This version of Ipopt was compiled using HSL, a collection of Fortran codes
    for large-scale scientific computation.  All technical papers, sales and
    publicity material resulting from use of the HSL codes within IPOPT must
    contain the following acknowledgement:
        HSL, a collection of Fortran codes for large-scale scientific
        computation. See http://www.hsl.rl.ac.uk.
******************************************************************************

This is Ipopt version 3.13.2, running with linear solver ma27.

Number of nonzeros in equality constraint Jacobian...:     1550
Number of nonzeros in inequality constraint Jacobian.:        0
Number of nonzeros in Lagrangian Hessian.............:     2781

Total number of variables............................:      540
                     variables with only lower bounds:      108
                variables with lower and upper bounds:      378
                     variables with only upper bounds:        0
Total number of equality constraints.................:      532
Total number of inequality constraints...............:        0
        inequality constraints with only lower bounds:        0
   inequality constraints with lower and upper bounds:        0
        inequality constraints with only upper bounds:        0

iter    objective    inf_pr   inf_du lg(mu)  ||d||  lg(rg) alpha_du alpha_pr  ls
   0  0.0000000e+00 2.64e+00 7.33e-15  -1.0 0.00e+00    -  0.00e+00 0.00e+00   0
   1  4.3362853e+00 6.39e-01 1.14e+03  -1.0 1.73e+04    -  7.20e-01 9.90e-01h  1
   2  4.5681675e+00 3.12e-02 5.66e+01  -1.0 1.61e+03    -  9.33e-01 9.90e-01h  1
   3  4.3484050e+00 2.52e-04 3.02e+02  -1.0 1.30e+03    -  9.87e-01 9.90e-01h  1
   4  4.3444483e+00 2.52e-04 9.73e+06  -1.0 5.07e+03    -  9.77e-01 3.87e-03h  9
   5  4.3423476e+00 2.52e-04 1.96e+07  -1.0 5.33e+03    -  9.90e-01 1.93e-03h 10
   6  4.3402525e+00 2.52e-04 2.95e+07  -1.0 5.33e+03    -  9.90e-01 1.93e-03h 10
   7  4.3381653e+00 2.52e-04 3.95e+07  -1.0 5.32e+03    -  1.00e+00 1.93e-03h 10
   8  4.3360862e+00 2.52e-04 4.95e+07  -1.0 5.31e+03    -  1.00e+00 1.93e-03h 10
   9  4.3340149e+00 2.52e-04 5.95e+07  -1.0 5.30e+03    -  1.00e+00 1.93e-03h 10
iter    objective    inf_pr   inf_du lg(mu)  ||d||  lg(rg) alpha_du alpha_pr  ls
  10  4.3319516e+00 2.52e-04 6.95e+07  -1.0 5.29e+03    -  1.00e+00 1.93e-03h 10
  11  4.3298962e+00 2.52e-04 7.95e+07  -1.0 5.28e+03    -  1.00e+00 1.93e-03h 10
  12  4.3278486e+00 2.52e-04 8.95e+07  -1.0 5.27e+03    -  1.00e+00 1.93e-03h 10
  13  4.3258088e+00 2.52e-04 9.95e+07  -1.0 5.26e+03    -  1.00e+00 1.93e-03h 10
  14  3.7879729e+00 1.24e-01 1.10e+06  -1.0 5.25e+03    -  1.00e+00 9.90e-01w  1
  15  3.7931034e+00 1.52e-03 1.02e+07  -1.0 8.95e+01    -  1.00e+00 9.90e-01w  1
  16  3.7931343e+00 1.57e-05 1.02e+09  -1.0 9.23e-01    -  1.00e+00 9.90e-01h  1
  17  3.7931346e+00 1.58e-07 1.02e+11  -1.0 9.31e-03    -  1.00e+00 9.90e-01h  1
In iteration 17, 27 Slacks too small, adjusting variable bounds
  18  3.7931346e+00 1.58e-09 1.02e+13  -1.0 9.31e-05    -  1.00e+00 9.90e-01h  1
  19  3.7931346e+00 6.00e-13 1.00e-06  -1.0 9.32e-07    -  1.00e+00 1.00e+00h  1
iter    objective    inf_pr   inf_du lg(mu)  ||d||  lg(rg) alpha_du alpha_pr  ls
  20  3.7931227e+00 1.61e-09 1.01e+13  -9.0 2.72e+02    -  9.72e-01 4.88e-04f 12
  21  3.7931223e+00 1.64e-09 1.03e+13  -9.0 1.69e+03    -  5.73e-01 1.91e-06f 20
  22  3.7931006e+00 2.21e-11 1.02e+07  -9.0 1.70e-01  -4.0 1.00e+00 1.00e+00H  1
  23  3.7930353e+00 5.89e-10 1.70e-05  -9.0 5.09e-01  -4.5 1.00e+00 1.00e+00F  1
  24  3.7928396e+00 2.35e-11 1.69e-05  -9.0 1.52e+00  -5.0 1.00e+00 1.00e+00F  1
  25  3.7922539e+00 1.43e-04 1.69e-05  -9.0 4.56e+00  -5.4 1.00e+00 1.00e+00f  1
  26  3.7905091e+00 1.37e-03 1.68e-05  -9.0 1.36e+01  -5.9 1.00e+00 1.00e+00h  1
  27  3.7853748e+00 1.49e-02 1.64e-05  -9.0 3.99e+01  -6.4 1.00e+00 1.00e+00h  1
  28  3.7705553e+00 2.67e-01 5.92e-05  -9.0 1.11e+02  -6.9 1.00e+00 1.00e+00h  1
  29  3.7644504e+00 6.87e-02 4.68e-05  -9.0 3.84e+01  -6.4 1.00e+00 1.00e+00h  1
iter    objective    inf_pr   inf_du lg(mu)  ||d||  lg(rg) alpha_du alpha_pr  ls
  30  3.7448235e+00 7.14e+00 1.17e-03  -9.0 1.33e+02  -6.9 1.00e+00 1.00e+00h  1
  31  3.6650114e+00 2.37e+02 4.56e-01  -9.0 1.76e+03    -  1.00e+00 1.00e+00h  1
  32  3.6645910e+00 2.37e+02 2.02e+00  -9.0 5.60e+03    -  1.58e-04 1.58e-04H  1
  33  3.6648546e+00 2.36e+02 2.01e+00  -9.0 2.41e+05    -  9.24e-02 1.71e-04h 12
  34  3.6649287e+00 2.36e+02 2.01e+00  -9.0 2.41e+05    -  1.72e-04 4.27e-05h 14
  35  3.6649670e+00 2.36e+02 2.01e+00  -9.0 2.41e+05    -  3.25e-01 2.14e-05h 15
  36  3.6649865e+00 2.36e+02 2.01e+00  -9.0 2.41e+05    -  2.36e-04 1.07e-05h 16
  37r 3.6649865e+00 2.36e+02 1.00e+03   2.4 0.00e+00    -  0.00e+00 3.35e-07R 21
  38r 3.6649892e+00 2.24e+02 2.23e+03   2.4 1.92e+05    -  4.15e-03 1.03e-04f  4
  39r 3.6649545e+00 1.06e+02 2.72e+03   1.7 5.33e+04    -  6.17e-03 4.15e-03f  1
iter    objective    inf_pr   inf_du lg(mu)  ||d||  lg(rg) alpha_du alpha_pr  ls
  40  3.5604116e+00 1.05e+02 4.07e+00  -9.0 2.29e+05    -  2.09e-01 1.56e-02h  7
  41  7.5197527e+02 4.39e+01 1.54e+04  -9.0 2.17e+05    -  2.04e-01 1.00e+00h  1
  42  7.4104187e+02 3.29e+01 1.15e+04  -9.0 7.19e+05    -  3.47e-01 2.51e-01f  2
  43  2.4487733e+03 1.88e+01 4.41e+04  -9.0 2.81e+05    -  4.16e-01 1.00e+00h  1
  44  2.4786573e+03 1.87e+01 4.40e+04  -9.0 3.55e+06  -6.5 5.57e-03 2.01e-03h  1
  45r 2.4786573e+03 1.87e+01 1.00e+03   1.3 0.00e+00  -6.1 0.00e+00 9.35e-12R  2
  46r 2.4786565e+03 1.87e+01 1.20e+03   1.3 1.63e+11    -  3.94e-09 7.41e-10f  1
  47r 2.4786547e+03 1.06e+01 9.48e+03   1.3 1.16e+04    -  2.31e-02 1.60e-03f  1
  48  9.5694208e+02 1.59e+02 3.47e+04  -9.0 2.61e+05    -  4.01e-01 6.66e-01f  1
In iteration 48, 1 Slack too small, adjusting variable bound
  49  9.5615913e+02 1.59e+02 3.46e+04  -9.0 2.61e+05    -  6.70e-01 2.44e-03f  1
iter    objective    inf_pr   inf_du lg(mu)  ||d||  lg(rg) alpha_du alpha_pr  ls
  50  1.6593600e+03 1.62e+01 1.11e+04  -9.0 2.60e+05    -  7.43e-01 8.98e-01h  1
  51  1.4475227e+03 6.70e+00 3.33e+04  -9.0 1.69e+05  -6.5 2.81e-02 1.00e+00f  1
  52  1.7333125e+03 5.44e+00 7.53e+04  -9.0 7.66e+04  -6.1 3.33e-01 1.00e+00h  1
  53  1.7699964e+03 2.72e+00 7.05e+04  -9.0 7.49e+04  -5.7 8.79e-06 5.00e-01h  2
  54  1.8023234e+03 4.13e+00 6.56e+04  -9.0 3.05e+04  -6.2 5.51e-03 1.00e+00h  1
  55  1.8919920e+03 3.24e+00 1.23e+04  -9.0 8.07e+04  -6.6 8.43e-01 3.03e-01H  1
  56  1.8353179e+03 3.66e+00 1.07e+04  -9.0 2.27e+04  -6.2 2.33e-09 1.00e+00f  1
  57  1.8614137e+03 2.69e+00 2.22e+03  -9.0 5.25e+04  -6.7 9.35e-01 2.65e-01h  2
  58  1.8241221e+03 3.29e+00 1.50e+03  -9.0 5.59e+04  -7.2 9.55e-01 4.75e-01f  1
  59  1.3262954e+03 5.17e+00 1.28e+03  -9.0 8.20e+04  -7.6 7.67e-09 1.00e+00f  1
iter    objective    inf_pr   inf_du lg(mu)  ||d||  lg(rg) alpha_du alpha_pr  ls
  60  1.0204285e+03 2.83e+00 1.21e+04  -9.0 3.27e+05  -8.1 3.32e-03 5.48e-01f  1
In iteration 60, 1 Slack too small, adjusting variable bound
  61  1.0134049e+03 2.70e+00 1.15e+04  -9.0 1.14e+05  -6.8 3.00e-01 4.38e-02f  1
  62  1.0603965e+03 1.40e+00 9.22e+03  -9.0 1.55e+05  -7.3 3.85e-02 3.75e-01h  1
  63r 1.0603965e+03 1.40e+00 1.00e+03   0.1 0.00e+00  -6.8 0.00e+00 3.78e-09R  2
  64r 1.0603954e+03 1.38e+00 1.45e+03   0.1 9.30e+06    -  1.09e-04 7.51e-06f  1
  65r 1.0603884e+03 3.95e-01 1.44e+03   0.1 3.19e+03    -  7.16e-03 1.27e-03f  1
  66  9.8472540e+02 9.86e-01 2.15e+03  -9.0 3.32e+05    -  3.05e-01 2.50e-01f  3
  67  9.8899604e+02 9.83e-01 2.28e+03  -9.0 6.52e+05  -6.4 1.43e-01 3.00e-03h  5
  68  1.0696481e+03 9.53e-01 2.14e+04  -9.0 8.65e+05  -6.9 1.85e-01 3.03e-02h  3
  69  1.0771417e+03 9.42e-01 2.01e+04  -9.0 4.72e+05  -6.5 4.02e-01 1.21e-02h  5
iter    objective    inf_pr   inf_du lg(mu)  ||d||  lg(rg) alpha_du alpha_pr  ls
  70  1.0947561e+03 9.22e-01 2.73e+04  -9.0 3.92e+05  -6.0 5.48e-01 2.03e-02h  4
  71  1.2021800e+03 8.41e-01 1.87e+06  -9.0 7.66e+05  -5.6 5.52e-01 8.83e-02h  1
  72  1.2747225e+03 7.78e-01 3.27e+06  -9.0 2.72e+05  -4.3 1.06e-01 7.53e-02h  1
In iteration 72, 1 Slack too small, adjusting variable bound
  73  1.2747067e+03 7.78e-01 3.27e+06  -9.0 1.05e+06  -4.8 4.72e-11 7.14e-06f  1
In iteration 73, 1 Slack too small, adjusting variable bound
  74  1.2747029e+03 7.78e-01 3.27e+06  -9.0 6.25e+05  -4.3 3.85e-11 1.50e-05f  1
  75  1.2742901e+03 7.77e-01 3.27e+06  -9.0 9.84e+05  -4.8 1.77e-06 2.58e-04f  7
  76r 1.2742901e+03 7.77e-01 9.99e+02  -0.1 0.00e+00  -3.5 0.00e+00 1.14e-10R  2
  77r 1.2742908e+03 7.84e-01 9.99e+02  -0.1 7.15e+08    -  8.51e-09 1.03e-08f  4
  78r 1.2742727e+03 2.72e-01 9.97e+02  -0.1 2.47e+04    -  2.04e-03 1.93e-03f  1
  79  1.2740913e+03 2.71e-01 1.01e+00  -9.0 2.63e+05    -  1.10e-01 2.06e-03f  1
iter    objective    inf_pr   inf_du lg(mu)  ||d||  lg(rg) alpha_du alpha_pr  ls
  80  1.2744400e+03 2.67e-01 7.37e+00  -9.0 2.44e+05    -  7.29e-01 1.44e-02h  1
In iteration 80, 1 Slack too small, adjusting variable bound
  81  1.2744400e+03 2.67e-01 1.00e+01  -9.0 6.00e+05    -  5.98e-01 4.92e-11h  1
  82  1.2671267e+03 6.93e-01 4.92e+01  -9.0 7.10e+05    -  9.18e-05 7.41e-03f  3
  83  1.2626893e+03 9.52e-01 5.83e+01  -9.0 6.07e+05    -  8.43e-02 3.79e-03f  2
In iteration 83, 1 Slack too small, adjusting variable bound
  84  1.2626820e+03 9.52e-01 3.04e+05  -9.0 6.36e+05  -4.0 5.62e-01 2.18e-05f  1
  85  1.2613079e+03 1.15e+00 2.90e+05  -9.0 6.34e+05  -4.4 1.11e-01 4.44e-03f  1
  86r 1.2613079e+03 1.15e+00 1.00e+03   0.1 0.00e+00  -4.9 0.00e+00 1.01e-11R  2
  87r 1.2613123e+03 1.10e+00 1.00e+03   0.1 1.32e+08    -  3.24e-06 1.16e-07f  5
  88r 1.2613127e+03 2.57e-01 9.92e+02   0.1 2.00e+03    -  1.51e-02 6.37e-04f  1
  89  1.2567921e+03 5.24e-01 5.09e+01  -9.0 7.12e+05    -  4.00e-01 1.45e-02f  2
iter    objective    inf_pr   inf_du lg(mu)  ||d||  lg(rg) alpha_du alpha_pr  ls
  90  1.2507003e+03 8.27e-01 7.06e+01  -9.0 7.34e+05    -  3.82e-01 8.63e-03f  6
  91  1.2083733e+03 8.12e-01 1.27e+02  -9.0 8.19e+05    -  3.64e-01 1.81e-02f  6
  92  1.1824733e+03 8.03e-01 1.50e+02  -9.0 7.87e+05    -  1.24e-01 1.15e-02f  7
  93  1.1709614e+03 7.99e-01 1.56e+02  -9.0 8.87e+05    -  4.22e-02 5.09e-03f  8
  94  9.0920444e+02 1.46e+01 8.81e+03  -9.0 8.43e+05    -  1.66e-01 1.74e-01f  3
  95  9.1437780e+02 1.44e+01 7.09e+03  -9.0 2.95e+05  -5.4 9.22e-03 9.05e-03h  2
In iteration 95, 1 Slack too small, adjusting variable bound
  96  9.5495496e+02 1.36e+01 1.62e+04  -9.0 2.97e+05  -5.9 4.21e-01 5.90e-02h  1
  97  9.8032908e+02 1.32e+01 1.57e+04  -9.0 3.05e+05  -6.4 5.29e-01 2.51e-02h  6
  98  9.8259049e+02 1.32e+01 1.57e+04  -9.0 4.78e+05  -6.8 5.25e-01 1.23e-03h 10
  99  9.8447587e+02 1.32e+01 1.57e+04  -9.0 4.11e+05  -7.3 5.90e-01 9.77e-04h 11
iter    objective    inf_pr   inf_du lg(mu)  ||d||  lg(rg) alpha_du alpha_pr  ls
 100  9.8462300e+02 1.32e+01 1.57e+04  -9.0 4.76e+05  -6.9 5.58e-01 7.93e-05h 14
 101  9.8467960e+02 1.32e+01 1.57e+04  -9.0 3.80e+05  -7.4 7.69e-01 2.91e-05h 16
In iteration 101, 1 Slack too small, adjusting variable bound
 102  2.4349410e+03 6.84e+00 3.10e+04  -9.0 4.77e+05  -6.9 6.14e-01 4.82e-01h  1
 103  2.5002670e+03 6.63e+00 3.01e+04  -9.0 1.05e+06  -7.4 1.43e-01 3.09e-02h  2
In iteration 103, 1 Slack too small, adjusting variable bound
 104  6.6111455e+03 6.00e+00 1.51e+05  -9.0 1.47e+06  -7.9 1.24e-02 9.45e-02H  1
 105  8.2397068e+03 1.46e+00 3.26e+05  -9.0 1.03e+05  -6.6 5.15e-01 1.00e+00h  1
 106  8.1128296e+03 6.52e+00 1.67e+05  -9.0 9.30e+04  -7.0 2.88e-02 5.00e-01f  2
 107  7.0148334e+03 2.25e+00 1.64e+04  -9.0 1.58e+05  -7.5 7.38e-01 1.00e+00f  1
 108  6.1502582e+03 1.62e+01 1.31e+04  -9.0 8.14e+05    -  1.46e-01 2.15e-01f  3
 109  4.9053065e+03 2.29e+00 3.25e+04  -9.0 2.57e+05  -8.0 5.80e-01 1.00e+00f  1
iter    objective    inf_pr   inf_du lg(mu)  ||d||  lg(rg) alpha_du alpha_pr  ls
 110  4.6169277e+03 2.87e+00 7.91e+03  -9.0 2.86e+05    -  7.57e-01 3.47e-01f  1
 111  4.4221582e+03 2.63e+00 7.91e+03  -9.0 2.25e+05    -  5.24e-09 1.00e+00f  1
 112  4.4427267e+03 2.14e+00 6.57e+03  -9.0 5.59e+05    -  1.70e-01 1.87e-01h  2
 113  4.3785143e+03 3.15e+00 2.51e+03  -9.0 9.94e+04  -8.5 6.21e-01 7.01e-01f  1
In iteration 113, 27 Slacks too small, adjusting variable bounds
 114  4.3785143e+03 3.15e+00 1.07e+03  -9.0 6.44e+04    -  8.04e-01 4.04e-09h  1
 115  4.2533996e+03 1.66e+00 2.94e+02  -9.0 6.66e+04    -  9.13e-01 1.00e+00f  1
 116  4.2588984e+03 1.42e+00 2.33e+02  -9.0 1.04e+05    -  9.61e-01 2.50e-01h  3
 117  4.2685647e+03 1.37e+00 1.75e+02  -9.0 2.22e+04    -  9.87e-01 2.50e-01h  3
 118  4.2667910e+03 1.34e+00 1.65e+02  -9.0 9.65e+04    -  1.00e+00 6.25e-02f  5
 119  4.2531625e+03 1.74e+00 7.23e+01  -9.0 2.15e+04    -  1.00e+00 1.00e+00f  1
iter    objective    inf_pr   inf_du lg(mu)  ||d||  lg(rg) alpha_du alpha_pr  ls
 120  4.2599629e+03 1.31e+00 6.08e+01  -9.0 1.02e+05    -  1.00e+00 2.50e-01h  3
In iteration 120, 27 Slacks too small, adjusting variable bounds
 121  4.2709953e+03 1.25e+00 2.33e+02  -9.0 5.33e+05    -  6.60e-01 4.69e-02h  1
 122  4.2693153e+03 1.25e+00 2.32e+02  -9.0 3.61e+06  -8.0 4.84e-02 1.27e-03f  8
 123  4.2787995e+03 1.24e+00 2.61e+02  -9.0 3.99e+05    -  1.00e+00 3.12e-02h  6
 124  4.2793453e+03 1.24e+00 9.30e+02  -9.0 9.32e+04  -4.9 3.23e-02 2.23e-03h  6
 125  4.2785585e+03 1.23e+00 2.28e+03  -9.0 2.11e+04  -5.4 1.60e-06 5.11e-02f  5
 126r 4.2785585e+03 1.23e+00 1.00e+03   0.1 0.00e+00  -5.9 0.00e+00 3.45e-07R  4
 127r 4.2782146e+03 1.23e+00 1.01e+03   0.1 1.69e+06    -  2.17e-10 5.29e-05f  1
 128r 4.2782421e+03 5.08e-01 1.01e+03   0.1 5.86e+03    -  4.22e-03 2.20e-03f  1
 129  3.6152871e+03 1.34e+00 8.01e+01  -9.0 5.17e+05    -  3.80e-01 8.33e-02F  1
In iteration 129, 1 Slack too small, adjusting variable bound
iter    objective    inf_pr   inf_du lg(mu)  ||d||  lg(rg) alpha_du alpha_pr  ls
 130  3.6151951e+03 1.34e+00 4.70e+01  -9.0 3.55e+05    -  5.91e-01 2.37e-05f  1
 131  2.8069506e+03 6.07e+00 9.93e+02  -9.0 3.55e+05    -  1.00e+00 2.42e-01f  3
 132  1.8300981e+03 6.10e+00 1.06e+03  -9.0 3.01e+05    -  5.70e-01 3.39e-01f  2
 133  1.9974231e+03 4.57e+00 8.39e+02  -9.0 2.12e+05    -  1.76e-09 2.50e-01h  3
 134  1.9605613e+03 4.33e+00 7.98e+02  -9.0 3.22e+05    -  1.00e+00 5.30e-02f  1
 135  1.3260343e+03 5.19e+00 6.50e+02  -9.0 1.96e+05    -  5.84e-04 5.00e-01f  2
 136  1.3270866e+03 5.16e+00 6.49e+02  -9.0 3.20e+05    -  2.40e-01 8.15e-04H  1
 137  1.3039368e+03 5.01e+00 6.28e+02  -9.0 3.10e+05    -  3.26e-02 2.96e-02f  5
 138  1.3191409e+03 4.69e+00 5.85e+02  -9.0 3.12e+05    -  1.16e-01 6.25e-02h  5
 139  1.6070903e+03 6.00e+00 5.23e+02  -9.0 2.55e+05    -  7.45e-01 1.99e-01h  1
iter    objective    inf_pr   inf_du lg(mu)  ||d||  lg(rg) alpha_du alpha_pr  ls
 140  1.2549235e+03 4.78e+00 5.80e+02  -9.0 2.08e+05    -  2.64e-01 2.50e-01f  3
 141  1.2589526e+03 4.86e+00 5.71e+02  -9.0 1.74e+05    -  1.12e-02 1.56e-02h  7
 142  1.3306999e+03 4.70e+00 5.37e+02  -9.0 2.82e+05    -  7.69e-02 6.25e-02h  5
 143  1.3623329e+03 4.89e+00 5.23e+02  -9.0 1.91e+05    -  1.00e+00 3.06e-02h  4
 144  2.5721940e+03 3.37e+00 1.97e+03  -9.0 2.73e+05    -  5.03e-01 5.00e-01h  2
 145  2.4036572e+03 4.56e+00 1.83e+03  -9.0 4.10e+05    -  3.58e-01 7.67e-02f  4
 146  2.3278404e+03 3.99e+00 1.61e+03  -9.0 2.44e+05    -  1.31e-01 1.25e-01f  4
 147  2.0970709e+03 3.74e+00 1.51e+03  -9.0 3.13e+05    -  1.05e-01 7.16e-02f  4
 148  2.1210636e+03 3.69e+00 1.49e+03  -9.0 3.31e+05    -  8.49e-01 1.36e-02h  1
 149  3.2081827e+03 2.27e+00 6.35e+03  -9.0 3.43e+05    -  1.00e+00 4.25e-01h  2
iter    objective    inf_pr   inf_du lg(mu)  ||d||  lg(rg) alpha_du alpha_pr  ls
 150  2.4919827e+03 9.31e+00 3.96e+03  -9.0 2.27e+05    -  4.20e-01 5.00e-01f  2
 151  2.3677351e+03 8.61e+00 3.72e+03  -9.0 4.68e+05    -  5.58e-01 7.49e-02f  4
 152  3.1493981e+03 6.07e+00 6.93e+03  -9.0 1.93e+05    -  4.83e-01 1.00e+00h  1
 153  2.7986230e+03 5.31e+00 1.85e+04  -9.0 4.83e+05    -  3.18e-01 1.25e-01f  4
 154  9.5753397e+02 7.76e+00 6.05e+04  -9.0 3.31e+05    -  2.10e-05 9.29e-01f  1
 155r 9.5753397e+02 7.76e+00 1.00e+03   0.9 0.00e+00  -6.3 0.00e+00 7.29e-11R  2
 156r 9.5753374e+02 7.89e+00 1.00e+03   0.9 6.56e+09    -  1.60e-09 4.00e-10f  3
 157r 9.5753246e+02 1.92e+00 1.00e+03   0.9 5.51e+03    -  3.55e-03 1.42e-03f  1
 158  8.3773854e+02 8.20e+00 2.75e+03  -9.0 9.56e+05    -  9.23e-03 1.03e-01f  3
 159  8.5113937e+02 7.12e+00 1.94e+04  -9.0 3.07e+05  -6.8 1.94e-01 1.31e-01H  1
iter    objective    inf_pr   inf_du lg(mu)  ||d||  lg(rg) alpha_du alpha_pr  ls
 160  1.3388319e+03 6.24e+00 2.65e+05  -9.0 1.53e+06  -7.3 5.08e-01 1.23e-01h  3
In iteration 160, 1 Slack too small, adjusting variable bound
 161  1.4024236e+03 6.14e+00 2.52e+05  -9.0 1.38e+06  -6.0 1.88e-01 1.65e-02h  1
In iteration 161, 1 Slack too small, adjusting variable bound
 162  1.6870950e+03 5.57e+00 3.98e+06  -9.0 1.56e+06  -5.5 9.67e-01 9.33e-02h  1
 163  1.7316426e+03 3.59e+00 1.15e+07  -9.0 6.66e+05  -5.1 4.36e-01 3.56e-01H  1
In iteration 163, 1 Slack too small, adjusting variable bound
 164  1.7426352e+03 3.41e+00 1.77e+07  -9.0 6.15e+05  -4.7 4.49e-10 4.85e-02h  1
In iteration 164, 1 Slack too small, adjusting variable bound
 165  1.7327001e+03 3.28e+00 3.60e+07  -9.0 8.38e+05  -4.3 5.58e-01 4.00e-02f  1
In iteration 165, 1 Slack too small, adjusting variable bound
 166  2.1255565e+03 3.11e+00 1.06e+09  -9.0 1.05e+06  -3.8 4.66e-02 1.84e-01H  1
In iteration 166, 1 Slack too small, adjusting variable bound
 167  2.3053662e+03 1.72e+00 4.69e+09  -9.0 7.06e+05  -3.4 4.80e-01 4.72e-01h  1
In iteration 167, 1 Slack too small, adjusting variable bound
 168  2.2922424e+03 1.70e+00 4.64e+09  -9.0 3.53e+05  -2.1 1.00e+00 1.09e-02f  1
In iteration 168, 1 Slack too small, adjusting variable bound
 169  2.2433081e+03 1.64e+00 4.46e+09  -9.0 4.75e+05  -2.6 1.00e+00 3.63e-02f  1
In iteration 169, 2 Slacks too small, adjusting variable bounds
iter    objective    inf_pr   inf_du lg(mu)  ||d||  lg(rg) alpha_du alpha_pr  ls
 170  2.2433081e+03 1.64e+00 4.46e+09  -9.0 3.59e+05  -2.1 1.00e+00 6.09e-09h  1
In iteration 170, 1 Slack too small, adjusting variable bound
 171  2.4902826e+03 2.18e+00 3.49e+09  -9.0 4.55e+05  -2.6 1.00e+00 4.42e-01h  1
In iteration 171, 1 Slack too small, adjusting variable bound
 172  2.5029520e+03 2.15e+00 3.39e+09  -9.0 1.16e+06  -2.2 1.30e-10 1.31e-02h  2
In iteration 172, 1 Slack too small, adjusting variable bound
 173  2.5054583e+03 2.14e+00 3.36e+09  -9.0 1.03e+06  -2.7 3.48e-02 6.18e-03h  5
 174  2.5092708e+03 2.15e+00 3.35e+09  -9.0 1.40e+06  -3.1 6.66e-11 2.99e-03h  7
In iteration 174, 1 Slack too small, adjusting variable bound
 175  2.6214472e+03 2.26e+00 2.10e+09  -9.0 1.15e+06  -2.7 5.13e-01 1.51e-01H  1
In iteration 175, 1 Slack too small, adjusting variable bound
 176  2.6690039e+03 2.33e+00 2.07e+09  -9.0 1.04e+06  -3.2 2.96e-02 1.08e-02h  6
In iteration 176, 1 Slack too small, adjusting variable bound
 177  2.7667297e+03 2.29e+00 1.95e+09  -9.0 8.56e+05  -2.8 1.58e-01 6.32e-02h  4
In iteration 177, 1 Slack too small, adjusting variable bound
 178  2.9034045e+03 3.04e+00 4.63e+09  -9.0 4.47e+05  -2.3 8.01e-01 1.41e-01h  3
In iteration 178, 1 Slack too small, adjusting variable bound
 179  3.3651476e+03 1.14e+00 1.03e+10  -9.0 3.15e+05  -2.8 1.00e+00 7.70e-01h  1
In iteration 179, 1 Slack too small, adjusting variable bound
iter    objective    inf_pr   inf_du lg(mu)  ||d||  lg(rg) alpha_du alpha_pr  ls
 180  3.3635761e+03 1.94e+00 9.63e+09  -9.0 1.50e+05  -1.5 7.77e-09 6.02e-02f  1
In iteration 180, 1 Slack too small, adjusting variable bound
 181  3.4255483e+03 1.80e+00 9.08e+09  -9.0 2.01e+05  -2.0 3.02e-01 5.25e-02H  1
In iteration 181, 1 Slack too small, adjusting variable bound
 182  3.2463386e+03 3.06e+00 1.11e+10  -9.0 8.72e+04  -1.5 4.12e-03 1.00e+00f  1
In iteration 182, 1 Slack too small, adjusting variable bound
 183  3.2589786e+03 2.95e+00 1.07e+10  -9.0 1.34e+05  -1.1 1.00e+00 3.35e-02h  2
In iteration 183, 1 Slack too small, adjusting variable bound
 184  3.2633622e+03 2.92e+00 1.06e+10  -9.0 1.28e+05  -0.7 1.00e+00 1.33e-02h  6
In iteration 184, 1 Slack too small, adjusting variable bound
 185  3.2680858e+03 2.89e+00 1.05e+10  -9.0 1.07e+05  -1.2 1.00e+00 9.38e-03h  7
In iteration 185, 1 Slack too small, adjusting variable bound
 186  3.5517147e+03 1.65e+00 3.65e+10  -9.0 1.51e+05  -0.7 1.00e+00 4.30e-01h  1
In iteration 186, 1 Slack too small, adjusting variable bound
 187  3.5619347e+03 1.59e+00 3.53e+10  -9.0 6.98e+04  -0.3 1.00e+00 3.25e-02h  2
In iteration 187, 1 Slack too small, adjusting variable bound
 188  3.5724206e+03 1.53e+00 3.39e+10  -9.0 5.75e+04   0.1 1.00e+00 4.00e-02h  1
 189r 3.5724206e+03 1.53e+00 1.00e+03   0.2 0.00e+00  -0.4 0.00e+00 1.06e-11R  2
iter    objective    inf_pr   inf_du lg(mu)  ||d||  lg(rg) alpha_du alpha_pr  ls
 190r 3.5723011e+03 1.80e+00 1.02e+03   0.2 5.98e+06    -  3.27e-13 6.68e-06f  1
 191r 3.5722699e+03 1.36e+00 1.01e+03   0.2 1.61e+04    -  6.09e-03 2.75e-03f  1
In iteration 191, 1 Slack too small, adjusting variable bound
 192  3.2643621e+03 1.28e+00 2.49e+02  -9.0 5.50e+05    -  7.39e-01 6.13e-02f  1
 193  8.6896348e+02 7.15e+00 3.82e+04  -9.0 5.57e+05    -  8.19e-01 1.00e+00f  1
 194  8.7782059e+02 6.89e+00 4.82e+04  -9.0 1.04e+06    -  5.46e-01 3.67e-02h  4
 195  1.0355365e+03 3.22e+00 9.14e+03  -9.0 1.88e+05    -  7.43e-01 8.28e-01h  1
 196  1.0625930e+03 2.72e-01 1.25e+10  -9.0 4.97e+04  -0.8 3.54e-07 1.00e+00h  1
 197  1.0625921e+03 2.72e-01 1.25e+10  -9.0 2.21e+04  -0.4 4.40e-03 3.03e-05h  1
In iteration 197, 1 Slack too small, adjusting variable bound
 198  1.0625796e+03 2.71e-01 1.25e+10  -9.0 3.29e+04  -0.9 8.91e-01 7.95e-05f  1
 199  1.0625731e+03 2.71e-01 1.25e+10  -9.0 2.01e+04  -0.5 9.66e-01 7.44e-04h  1
iter    objective    inf_pr   inf_du lg(mu)  ||d||  lg(rg) alpha_du alpha_pr  ls
 200r 1.0625731e+03 2.71e-01 1.00e+03  -0.6 0.00e+00  -0.9 0.00e+00 1.80e-10R  2
 201r 1.0625682e+03 2.66e-01 2.27e+03  -0.6 2.27e+07    -  1.26e-11 2.71e-06f  1
 202r 1.0625656e+03 7.90e-02 2.26e+03  -0.6 1.34e+04    -  4.34e-06 1.40e-03f  1
In iteration 202, 1 Slack too small, adjusting variable bound
 203  1.0466337e+03 2.43e-01 2.18e+01  -9.0 1.08e+05    -  6.76e-01 7.06e-02f  1
In iteration 203, 1 Slack too small, adjusting variable bound
 204  9.2334361e+02 1.72e+00 1.72e+03  -9.0 1.08e+05    -  6.56e-01 7.92e-01f  1
 205  9.2646195e+02 1.61e+00 1.61e+03  -9.0 1.24e+05    -  6.73e-01 6.25e-02h  5
 206  9.1126089e+02 5.20e-01 3.14e+08  -9.0 2.76e+04  -1.4 9.07e-06 1.00e+00f  1
In iteration 206, 1 Slack too small, adjusting variable bound
 207  9.1126086e+02 5.20e-01 3.14e+08  -9.0 5.17e+04  -1.9 9.15e-01 8.42e-07h  1
 208r 9.1126086e+02 5.20e-01 1.00e+03  -0.3 0.00e+00  -1.5 0.00e+00 2.20e-09R  2
 209r 9.1126452e+02 8.95e-02 1.00e+03  -0.3 1.08e+04    -  5.91e-03 2.52e-03f  1
iter    objective    inf_pr   inf_du lg(mu)  ||d||  lg(rg) alpha_du alpha_pr  ls
 210  9.0983101e+02 8.93e-02 8.05e+02  -9.0 1.84e+05    -  7.28e-01 1.37e-03f  1
In iteration 210, 1 Slack too small, adjusting variable bound
 211  9.0983101e+02 8.93e-02 8.05e+02  -9.0 1.53e+05    -  8.73e-01 2.29e-09h  1
 212  9.0491436e+02 9.28e-01 6.38e+02  -9.0 1.53e+05    -  9.09e-01 2.20e-01f  3
 213  9.0885998e+02 7.09e-01 4.97e+02  -9.0 5.13e+04    -  9.18e-01 2.36e-01h  3
 214  9.0979255e+02 6.27e-01 4.44e+02  -9.0 5.72e+04    -  9.38e-01 1.15e-01h  4
 215  9.0973786e+02 5.88e-01 4.17e+02  -9.0 6.66e+04    -  9.59e-01 6.19e-02f  5
 216  9.0979746e+02 5.15e-01 3.69e+02  -9.0 6.95e+04    -  1.00e+00 1.25e-01h  4
 217  9.0962381e+02 4.50e-01 3.26e+02  -9.0 7.16e+04    -  1.00e+00 1.25e-01f  4
 218  9.1437304e+02 3.45e-01 1.18e+03  -9.0 6.87e+04    -  1.00e+00 1.00e+00H  1
 219  9.0373214e+02 3.23e-01 2.58e+04  -9.0 1.24e+06    -  3.41e-01 6.44e-02f  3
iter    objective    inf_pr   inf_du lg(mu)  ||d||  lg(rg) alpha_du alpha_pr  ls
 220  9.2360851e+02 2.42e-01 6.53e+04  -9.0 7.77e+04    -  1.00e+00 2.50e-01h  3
 221  9.3845677e+02 1.82e-01 4.90e+04  -9.0 6.51e+04    -  1.00e+00 2.50e-01h  3
 222  9.3985582e+02 1.76e-01 4.75e+04  -9.0 4.47e+04    -  1.00e+00 3.10e-02h  6
 223  9.4286124e+02 1.78e-01 4.49e+04  -9.0 5.01e+04    -  1.00e+00 5.52e-02h  5
 224  9.6084487e+02 1.30e-01 4.67e+02  -9.0 2.50e+04    -  1.00e+00 1.00e+00h  1
 225  9.6295832e+02 1.23e-01 4.39e+02  -9.0 2.95e+04    -  1.00e+00 5.89e-02h  5
 226  1.0412884e+03 1.60e-02 7.58e+02  -9.0 5.05e+04    -  1.00e+00 8.70e-01h  1
 227  1.0466281e+03 5.95e-04 6.12e+01  -9.0 1.41e+04    -  9.48e-01 1.00e+00h  1
 228  1.0458246e+03 9.60e-06 6.03e-01  -9.0 1.32e+03    -  1.00e+00 1.00e+00f  1
 229  1.0458144e+03 3.96e-10 6.06e-05  -9.0 1.31e+01    -  1.00e+00 1.00e+00f  1
iter    objective    inf_pr   inf_du lg(mu)  ||d||  lg(rg) alpha_du alpha_pr  ls
 230  1.0458144e+03 1.10e-11 2.50e-09  -9.0 4.63e-04    -  1.00e+00 1.00e+00h  1

Number of Iterations....: 230

                                   (scaled)                 (unscaled)
Objective...............:   1.0458144319256367e+03    1.0458144319256367e+03
Dual infeasibility......:   2.4958086796956068e-09    2.4958086796956068e-09
Constraint violation....:   1.0991874077603825e-11    1.0991874077603825e-11
Complementarity.........:   9.0931863335434158e-10    9.0931863335434158e-10
Overall NLP error.......:   4.5505322153459653e-11    2.4958086796956068e-09


Number of objective function evaluations             = 904
Number of objective gradient evaluations             = 222
Number of equality constraint evaluations            = 904
Number of inequality constraint evaluations          = 0
Number of equality constraint Jacobian evaluations   = 241
Number of inequality constraint Jacobian evaluations = 0
Number of Lagrangian Hessian evaluations             = 230
Total CPU secs in IPOPT (w/o function evaluations)   =      0.628
Total CPU secs in NLP function evaluations           =     11.710

EXIT: Optimal Solution Found.
